63 63
17 12
26 1
5 46
12 36
14 63
15 3
21 53
9 49
14 41
30 62
8 8
23 39
22 44
15 30
2 10
19 61
16 50
8 31
11 5
27 51
4 20
16 25
9 40
7 4
22 42
26 18
25 21
10 19
27 54
25 34
20 24
24 11
13 43
6 29
2 6
1 27
29 7
28 56
3 17
6 52
5 47
18 33
24 55
19 38
17 28
12 13
21 35
4 23
1 48
3 60
20 15
31 16
10 2
18 26
1 58
7 45
28 59
13 22
11 9
29 57
30 14
31 32
23 37
